n_res = 4;
rcap = [27, 28, 76, 63];
rtype = [1, 1, 2, 2];
n_tasks = 16;
modes = [ {1, 2, 3, 4}, {5, 6, 7, 8}, {9, 10, 11, 12}, {13, 14, 15, 16}, {17, 18, 19, 20}, {21, 22, 23, 24}, {25, 26, 27, 28}, {29, 30, 31, 32}, {33, 34, 35, 36}, {37, 38, 39, 40}, {41, 42, 43, 44}, {45, 46, 47, 48}, {49, 50, 51, 52}, {53, 54, 55, 56}, {57, 58, 59, 60}, {61, 62, 63, 64} ];
succ = [ {4, 5, 9}, {9, 11}, {9, 15}, {6, 8, 11}, {7, 15}, {14, 15}, {8, 11}, {10, 13}, {12, 13}, {12}, {12, 13}, {14, 16}, {14, 16}, {}, {}, {} ];
n_opt = 64;
dur = [2, 6, 9, 9, 1, 1, 2, 5, 2, 3, 4, 8, 1, 6, 6, 7, 2, 5, 6, 9, 4, 7, 7, 10, 1, 1, 3, 9, 1, 4, 9, 9, 4, 7, 8, 10, 2, 3, 4, 8, 3, 4, 5, 9, 1, 5, 9, 10, 3, 4, 4, 4, 3, 4, 5, 7, 2, 4, 6, 10, 2, 2, 8, 9];
rreq = [|  8,  5,  4,  4,  4,  5,  4,  1,  8,  6,  6,  4,  7,  6,  6,  6,  9,  6,  5,  4,  3,  2,  3,  2,  5,  4,  4,  3,  7,  7,  4,  6,  8,  8,  5,  3,  7,  6,  4,  2,  9,  9,  8,  8,  9,  9,  9,  8,  9,  9,  8,  9,  3,  2,  2,  2,  6,  6,  5,  5, 10, 10,  9,  9
        |  5,  5,  5,  5,  6,  6,  6,  4,  5,  5,  4,  4,  4,  4,  4,  3,  7,  6,  4,  3, 10,  5,  5,  2,  8,  7,  6,  5,  6,  6,  3,  3,  7,  7,  6,  6,  7,  7,  7,  7,  5,  4,  4,  3,  5,  3,  2,  2,  7,  1,  1,  1, 10,  8,  6,  5,  7,  5,  4,  2,  9,  8,  7,  6
        |  0,  7,  7,  0,  0,  3,  2,  2,  0,  0,  0,  0,  0,  0,  9,  0,  4,  4,  2,  0,  9,  0,  6,  0,  8,  0,  0,  9,  4,  3,  3,  2,  0,  6,  5,  0,  0, 10, 10,  9,  7,  6,  0,  6,  5,  4,  4,  0,  0,  8,  0,  0,  0,  0,  0,  7,  0,  9,  9,  0,  4,  0,  0,  4
        |  3,  0,  0,  2,  6,  0,  0,  0,  9,  6,  3,  3,  3,  3,  0,  3,  0,  0,  0,  7,  0,  8,  0,  8,  0,  5,  5,  0,  0,  0,  0,  0,  6,  0,  0,  6,  2,  0,  0,  0,  0,  0,  3,  0,  0,  0,  0,  8,  4,  0,  3,  1,  7,  5,  3,  0,  2,  0,  0,  2,  0, 10,  7,  0 |];
